
  32    4
  10   10   10   10

   0   0   0   0   0   2 2 9 
   8  10  10  10  10   2 11 3 
   2  10  10  10  10   2 6 4 
  10  10  10  10  10   4 19 18 8 5 
  10  10  10  10  10   2 13 7 
   9  10  10  10  10   3 18 14 10 
   6  10  10  10  10   2 14 10 
   4  10  10  10  10   2 14 10 
   7  10  10  10  10   2 14 10 
   6  10  10  10  10   2 16 12 
   4  10  10  10  10   2 16 12 
   7  10  10  10  10   2 22 15 
   8  10  10  10  10   2 22 15 
   6  10  10  10  10   3 24 22 17 
   2  10  10  10  10   2 24 17 
  10  10  10  10  10   3 27 24 20 
   5  10  10  10  10   2 27 20 
   9  10  10  10  10   2 22 21 
   5  10  10  10  10   2 27 20 
   2  10  10  10  10   1 21 
   2  10  10  10  10   2 30 23 
  10  10  10  10  10   4 31 30 29 28 
  10  10  10  10  10   2 29 25 
   8  10  10  10  10   1 25 
  10  10  10  10  10   1 26 
   2  10  10  10  10   1 28 
   3  10  10  10  10   1 28 
   9  10  10  10  10   1 32
   4  10  10  10  10   1 32
   5  10  10  10  10   1 32
   5  10  10  10  10   1 32
   0   0   0   0   0   0 
